\ Model primal
\ LP format - for model browsing. Use MPS format to capture full model detail.
Maximize
  C9 + C10 + C11 + 10 C12 + 10 C13 + 10 C14 + 20 C15 + 20 C16 + 20 C17
Subject To
 A[0,0]: 9 C1 + C10 + C11 - C18 <= 0
 A[0,1]: - 9 C0 - 9 C2 + C9 + C11 - C19 <= 0
 A[0,2]: 9 C1 + C9 + C10 - C20 <= 0
 A[1,0]: 8 C4 + 8 C5 + C13 + C14 - C18 <= 0
 A[1,1]: - 8 C3 + C12 + C14 - C19 <= 0
 A[1,2]: - 8 C3 + C12 + C13 - C20 <= 0
 A[2,0]: - 7 C8 + C16 + C17 - C18 <= 0
 A[2,1]: - 7 C8 + C15 + C17 - C19 <= 0
 A[2,2]: 7 C6 + 7 C7 + C15 + C16 - C20 <= 0
 B[0,0]: 10 C0 - C9 + C18 <= 10
 B[0,1]: 10 C1 - C10 + C19 <= 10
 B[0,2]: 10 C2 - C11 + C20 <= 10
 B[1,0]: 9 C3 - C12 + C18 <= 9
 B[1,1]: 9 C4 - C13 + C19 <= 9
 B[1,2]: 9 C5 - C14 + C20 <= 9
 B[2,0]: 8 C6 - C15 + C18 <= 8
 B[2,1]: 8 C7 - C16 + C19 <= 8
 B[2,2]: 8 C8 - C17 + C20 <= 8
 C[0]: C0 + C1 + C2 <= 1
 C[1]: C3 + C4 + C5 <= 1
 C[2]: C6 + C7 + C8 <= 1
 D[0,0]: - 10 C0 + C9 <= 0
 D[0,1]: - C1 + C10 <= 0
 D[0,2]: - 10 C2 + C11 <= 0
 D[1,0]: - 9 C3 + C12 <= 0
 D[1,1]: - C4 + C13 <= 0
 D[1,2]: - C5 + C14 <= 0
 D[2,0]: - C6 + C15 <= 0
 D[2,1]: - C7 + C16 <= 0
 D[2,2]: - 8 C8 + C17 <= 0
 E[0,0]: C9 - C18 <= 0
 E[0,1]: C10 - C19 <= 0
 E[0,2]: C11 - C20 <= 0
 E[1,0]: C12 - C18 <= 0
 E[1,1]: C13 - C19 <= 0
 E[1,2]: C14 - C20 <= 0
 E[2,0]: C15 - C18 <= 0
 E[2,1]: C16 - C19 <= 0
 E[2,2]: C17 - C20 <= 0
Bounds
End
